1002.69
0 56 42 35 38 90 137 53 3 67 16 105 36 71 69 91 174 89 149 169 26 44 51 107 143 32 146 49 132 163 75 135 30 59 85 126 78 158 25 15 157 148 96 57 134 129 47 5 6 170 161 131 74 58 106 141 121 60 48 162 111 64 115 22 10 11 21 28 167 86 142 97 108 112 113 17 55 173 52 46 24 19 72 120 31 43 122 144 164 50 79 124 83 88 138 165 159 151 127 153 93 101 104 136 102 147 133 7 40 145 68 160 14 155 80 109 98 37 139 130 154 34 39 114 76 70 128 150 82 119 20 27 103 63 8 117 87 118 94 166 110 92 54 4 116 156 33 84 168 77 95 152 62 9 23 2 41 45 81 140 125 29 99 171 73 18 12 172 13 123 100 66 1 61 65
